Optimal - objective value -87.87108100
      0 squad[308,6]                                    1                      0
      1 squad[308,7]                                    1                      0
      2 squad[355,6]                                    1                      0
      3 squad[355,7]                                    1                      0
      6 squad[19,6]                                     1                      0
      7 squad[19,7]                                     1                      0
     10 squad[373,6]                                    1                      0
     11 squad[373,7]                                    1                      0
     14 squad[108,6]                                    1                      0
     15 squad[108,7]                                    1                      0
     26 squad[131,6]                                    1                      0
     27 squad[131,7]                                    1                      0
     34 squad[143,6]                                    1                      0
     35 squad[143,7]                                    1                      0
     46 squad[405,6]                                    1                      0
     47 squad[405,7]                                    1                      0
     70 squad[511,6]                                    1                      0
     71 squad[511,7]                                    1                      0
    146 squad[20,6]                                     1                      0
    147 squad[20,7]                                     1                      0
    174 squad[230,6]                                    1                      0
    175 squad[230,7]                                    1                      0
    196 squad[112,6]                                    1                      0
    197 squad[112,7]                                    1                      0
    494 squad[148,6]                                    1                      0
    495 squad[148,7]                                    1                      0
    586 squad[82,6]                                     1                      0
    587 squad[82,7]                                     1                      0
    682 squad[538,6]                                    1                      0
    683 squad[538,7]                                    1                      0
    742 squad_fh[308,7]                                 1                      0
    743 squad_fh[355,7]                                 1                      0
    745 squad_fh[19,7]                                  1                      0
    748 squad_fh[526,7]                                 1                      0
    752 squad_fh[664,7]                                 1                      0
    757 squad_fh[430,7]                                 1                      0
    758 squad_fh[343,7]                                 1                      0
    765 squad_fh[405,7]                                 1                      0
    778 squad_fh[326,7]                                 1                      0
    790 squad_fh[161,7]                                 1                      0
    804 squad_fh[427,7]                                 1                      0
    821 squad_fh[596,7]                                 1                      0
    831 squad_fh[614,7]                                 1                      0
    867 squad_fh[316,7]                                 1                      0
    889 squad_fh[178,7]                                 1                      0
   1113 lineup[308,7]                                   1                 -6.314
   1114 lineup[355,7]                                   1                  -7.51
   1116 lineup[19,7]                                    1                 -6.354
   1119 lineup[526,7]                                   1                 -6.263
   1123 lineup[664,7]                                   1                 -6.211
   1128 lineup[430,7]                                   1                 -6.113
   1136 lineup[405,7]                                   1                 -5.833
   1149 lineup[326,7]                                   1                 -7.866
   1161 lineup[161,7]                                   1                 -7.741
   1202 lineup[614,7]                                   1                 -7.296
   1238 lineup[316,7]                                   1                 -6.999
   1520 captain[326,7]                                  1                 -7.866
   1903 vicecap[161,7]                                  1                -0.7741
   2291 bench[343,7,1]                                  1                -1.1445
   2476 bench[427,7,2]                                  1               -0.30354
   2542 bench[596,7,0]                                  1               -0.18795
   2817 bench[178,7,3]                                  1              -0.014991
   4460 itb[6]                                        1.6                      0
   4461 itb[7]                                        1.6                      0
   4463 ft[7]                                           2                   -1.5
   4468 use_fh[7]                                       1                      0
